
===== New CPLEX run =====
Instance: /home/yorig/tuner/mpils-tests/instances/miplib/medium-2/supportcase26.mps
Config: /scratch/yorig/mpils-results-grid-seconds-10-no-mip-start/medium-2/1proc/seed-3/7_supportcase26_seed-3_20260503_020745/iterated_local_search/run_3_worker_0/ils_config_12996173874772920301.prm
========================

Selected objective sense:  MINIMIZE
Selected objective  name:  OBJ
Selected RHS        name:  RHS1
Selected bound      name:  BND1
Version identifier: 22.1.2.0 | 2024-11-26 | 0edbb82fd
CPXPARAM_Threads                                 8
CPXPARAM_Parallel                                1
CPXPARAM_MIP_Cuts_Cliques                        2
CPXPARAM_MIP_Strategy_PresolveNode               1
CPXPARAM_MIP_Cuts_Implied                        1
CPXPARAM_MIP_Limits_GomoryCand                   100
CPXPARAM_MIP_Cuts_PathCut                        -1
CPXPARAM_MIP_Cuts_MIRCut                         2
CPXPARAM_Emphasis_MIP                            2
CPXPARAM_TimeLimit                               10
CPXPARAM_MIP_Limits_CutsFactor                   8
Tried aggregator 1 time.
MIP Presolve eliminated 40 rows and 0 columns.
Reduced MIP has 830 rows, 436 columns, and 2452 nonzeros.
Reduced MIP has 396 binaries, 0 generals, 0 SOSs, and 0 indicators.
Presolve time = 0.00 sec. (0.91 ticks)
Found incumbent of value 2537.591322 after 0.00 sec. (3.43 ticks)
Probing time = 0.00 sec. (0.47 ticks)
Tried aggregator 1 time.
Detecting symmetries...
Reduced MIP has 830 rows, 436 columns, and 2452 nonzeros.
Reduced MIP has 396 binaries, 0 generals, 0 SOSs, and 0 indicators.
Presolve time = 0.00 sec. (1.10 ticks)
Probing time = 0.00 sec. (0.47 ticks)
MIP emphasis: optimality.
MIP search method: dynamic search.
Parallel mode: deterministic, using up to 8 threads.
Root relaxation solution time = 0.00 sec. (2.85 ticks)

        Nodes                                         Cuts/
   Node  Left     Objective  IInf  Best Integer    Best Bound    ItCnt     Gap

*     0+    0                         2537.5913     1288.1022            49.24%
*     0+    0                         2201.8794     1288.1022            41.50%
      0     0     1288.1022    47     2201.8794     1288.1022      207   41.50%
      0     0     1288.1308    47     2201.8794   MIRcuts: 35      267   41.50%
      0     0     1326.7507    41     2201.8794   MIRcuts: 58      320   39.74%
      0     0     1353.0747    49     2201.8794      Cuts: 73      372   38.55%
      0     0     1357.4882    53     2201.8794      Cuts: 67      403   38.35%
      0     0     1357.5200    57     2201.8794   MIRcuts: 12      413   38.35%
Detecting symmetries...
      0     0     1357.7417    57     2201.8794    MIRcuts: 5      417   38.34%
      0     0     1357.7417    58     2201.8794   MIRcuts: 63      430   38.34%
*     0+    0                         1925.3739     1357.7417            29.48%
Detecting symmetries...
      0     2     1357.7417    58     1925.3739     1367.3036      430   28.99%
Elapsed time = 0.06 sec. (78.41 ticks, tree = 0.02 MB, solutions = 3)
*   106    84      integral     0     1878.6656     1367.3036     1265   27.22%
    838   678     1393.3352    45     1878.6656     1379.7173     7761   26.56%
   1312   466     1388.3166    47     1878.6656     1379.7173     4790   26.56%
*  1604+ 1036                         1870.1732     1388.7575            25.74%
   2652  2092     1512.4924    36     1870.1732     1404.8653    33365   24.88%

Performing restart 1

Repeating presolve.
Tried aggregator 1 time.
MIP Presolve modified 1188 coefficients.
Reduced MIP has 830 rows, 436 columns, and 2452 nonzeros.
Reduced MIP has 396 binaries, 0 generals, 0 SOSs, and 0 indicators.
Presolve time = 0.00 sec. (1.09 ticks)
Tried aggregator 1 time.
Reduced MIP has 830 rows, 436 columns, and 2452 nonzeros.
Reduced MIP has 396 binaries, 0 generals, 0 SOSs, and 0 indicators.
Presolve time = 0.00 sec. (1.39 ticks)
Represolve time = 0.01 sec. (12.47 ticks)
   3566     0     1378.4458    66     1870.1732     Cuts: 307    55969   24.35%
   3566     0     1385.0200    69     1870.1732      Cuts: 79    56016   24.35%
   3566     0     1386.6722    65     1870.1732     Cuts: 120    56079   24.35%
   3566     0     1387.1815    77     1870.1732     Cuts: 197    56139   24.35%
   3566     0     1388.5776    87     1870.1732     Cuts: 142    56214   24.35%
   3566     0     1388.8795    88     1870.1732     Cuts: 155    56297   24.35%
   3566     0     1389.2290    86     1870.1732     Cuts: 126    56353   24.35%
*  3566+    0                         1870.1732     1414.7491            24.35%
   3566     2     1389.2290    86     1870.1732     1414.7491    56353   24.35%
*  3576+    1                         1865.9269     1414.7491            24.18%
*  3588+    4                         1865.9269     1414.7491            24.18%
*  3590+    3                         1865.9269     1414.7491            24.18%
   4157   315     1569.0763    36     1865.9269     1414.7491    60951   24.18%
   4903   961     1646.1334    32     1865.9269     1443.6498    80506   22.63%
   5721  1698     1689.8124    42     1865.9269     1465.6258   103804   21.45%
   6565  2406     1838.6892    10     1865.9269     1475.2680   125842   20.94%
*  6953  2641      integral     0     1861.6807     1478.7540   133666   20.57%
*  8557+ 4008                         1836.2035     1491.7905            18.76%
   9038  4116     1664.6531    42     1836.2035     1493.6544   191731   18.66%
Elapsed time = 2.12 sec. (3480.40 ticks, tree = 1.96 MB, solutions = 10)
* 11925+ 6560                         1831.9573     1506.8365            17.75%
  11950  6691     1528.1117    51     1831.9573     1506.8365   284227   17.75%
  14869  8763     1592.5265    52     1831.9573     1516.1847   366608   17.24%
* 17295+10760                         1802.2338     1522.4102            15.53%
  17781 10307     1708.7250    21     1802.2338     1523.7413   456161   15.45%
* 19540+11724                         1802.2338     1528.9857            15.16%
  20556 12626     1698.7195    39     1802.2338     1531.3009   555200   15.03%
  23362 14376     1559.0332    45     1802.2338     1537.3945   632913   14.70%
  26182 16575        cutoff           1802.2338     1542.4628   728863   14.41%
  29037 18543     1720.2662    27     1802.2338     1547.2972   817128   14.15%
* 31690+20028                         1793.7414     1551.6396            13.50%
  31957 20467     1585.9417    42     1793.7414     1552.0491   903993   13.47%
  34396 21493     1772.2136    21     1793.7414     1556.0887   980521   13.25%
  36807 23547        cutoff           1793.7414     1560.0988  1079086   13.03%
Elapsed time = 7.46 sec. (13023.16 ticks, tree = 14.12 MB, solutions = 17)
  39294 25000     1749.1197    25     1793.7414     1563.1068  1145541   12.86%
  42081 27064        cutoff           1793.7414     1566.6996  1240330   12.66%
  44543 28397     1653.6310    37     1793.7414     1570.3218  1311762   12.46%
  47186 30023     1592.8320    48     1793.7414     1573.8644  1383945   12.26%

Clique cuts applied:  0
Cover cuts applied:  90
Implied bound cuts applied:  1
Flow cuts applied:  70
Mixed integer rounding cuts applied:  1712
Lift and project cuts applied:  40
Gomory fractional cuts applied:  26

Root node processing (before b&c):
  Real time             =    0.06 sec. (78.10 ticks)
Parallel b&c, 8 threads:
  Real time             =    9.95 sec. (17704.39 ticks)
  Sync time (average)   =    0.84 sec.
  Wait time (average)   =    0.00 sec.
                          ------------
Total (root+branch&cut) =   10.00 sec. (17782.49 ticks)
Gap: 12.01%
Upper bound: 1793.74
Lower bound: 1578.37
End of CPLEX run. Time: 10.0029 seconds

===== New CPLEX run =====
Instance: /home/yorig/tuner/mpils-tests/instances/miplib/medium-2/supportcase26.mps
Config: /scratch/yorig/mpils-results-grid-seconds-10-no-mip-start/medium-2/1proc/seed-3/7_supportcase26_seed-3_20260503_020745/iterated_local_search/run_3_worker_0/ils_config_2632688548948960798.prm
========================

Selected objective sense:  MINIMIZE
Selected objective  name:  OBJ
Selected RHS        name:  RHS1
Selected bound      name:  BND1
Version identifier: 22.1.2.0 | 2024-11-26 | 0edbb82fd
CPXPARAM_Threads                                 8
CPXPARAM_Parallel                                1
CPXPARAM_MIP_Cuts_Cliques                        2
CPXPARAM_MIP_Strategy_PresolveNode               1
CPXPARAM_MIP_Limits_GomoryCand                   25
CPXPARAM_MIP_Cuts_PathCut                        -1
CPXPARAM_MIP_Cuts_MIRCut                         2
CPXPARAM_Emphasis_MIP                            2
CPXPARAM_TimeLimit                               10
CPXPARAM_MIP_Limits_CutsFactor                   8
Tried aggregator 1 time.
MIP Presolve eliminated 40 rows and 0 columns.
Reduced MIP has 830 rows, 436 columns, and 2452 nonzeros.
Reduced MIP has 396 binaries, 0 generals, 0 SOSs, and 0 indicators.
Presolve time = 0.00 sec. (0.91 ticks)
Found incumbent of value 2537.591322 after 0.00 sec. (3.43 ticks)
Probing time = 0.00 sec. (0.47 ticks)
Tried aggregator 1 time.
Detecting symmetries...
Reduced MIP has 830 rows, 436 columns, and 2452 nonzeros.
Reduced MIP has 396 binaries, 0 generals, 0 SOSs, and 0 indicators.
Presolve time = 0.00 sec. (1.10 ticks)
Probing time = 0.00 sec. (0.47 ticks)
MIP emphasis: optimality.
MIP search method: dynamic search.
Parallel mode: deterministic, using up to 8 threads.
Root relaxation solution time = 0.00 sec. (2.85 ticks)

        Nodes                                         Cuts/
   Node  Left     Objective  IInf  Best Integer    Best Bound    ItCnt     Gap

*     0+    0                         2537.5913     1288.1022            49.24%
*     0+    0                         2201.8794     1288.1022            41.50%
      0     0     1288.1022    47     2201.8794     1288.1022      207   41.50%
      0     0     1288.1308    47     2201.8794   MIRcuts: 35      267   41.50%
      0     0     1326.7507    41     2201.8794   MIRcuts: 58      320   39.74%
      0     0     1353.0747    49     2201.8794      Cuts: 73      372   38.55%
      0     0     1357.4882    53     2201.8794      Cuts: 67      403   38.35%
      0     0     1357.5200    57     2201.8794   MIRcuts: 12      413   38.35%
Detecting symmetries...
      0     0     1357.7417    57     2201.8794    MIRcuts: 5      417   38.34%
      0     0     1357.7417    58     2201.8794   MIRcuts: 63      430   38.34%
*     0+    0                         1925.3739     1357.7417            29.48%
Detecting symmetries...
      0     2     1357.7417    58     1925.3739     1367.3776      430   28.98%
Elapsed time = 0.06 sec. (78.41 ticks, tree = 0.02 MB, solutions = 3)
*   104    76      integral     0     1874.4194     1367.3776     1225   27.05%
*   309   243      integral     0     1823.4216     1367.3776     2530   25.01%
    932   731     1463.1271    39     1823.4216     1370.1168     8101   24.86%
   1851  1433     1523.0916    48     1823.4216     1391.7566    19312   23.67%
   3030  2566     1651.3739    15     1823.4216     1418.4617    49415   22.21%

Performing restart 1

Repeating presolve.
Tried aggregator 1 time.
MIP Presolve modified 1188 coefficients.
Reduced MIP has 830 rows, 436 columns, and 2452 nonzeros.
Reduced MIP has 396 binaries, 0 generals, 0 SOSs, and 0 indicators.
Presolve time = 0.00 sec. (1.09 ticks)
Tried aggregator 1 time.
Reduced MIP has 830 rows, 436 columns, and 2452 nonzeros.
Reduced MIP has 396 binaries, 0 generals, 0 SOSs, and 0 indicators.
Presolve time = 0.00 sec. (1.39 ticks)
Represolve time = 0.01 sec. (12.46 ticks)
*  3499+    0                         1823.4216     1425.6396            21.82%
   3499     0     1376.4043    74     1823.4216     Cuts: 307    63940   21.82%
   3499     0     1382.2974    72     1823.4216      Cuts: 80    64001   21.82%
   3499     0     1387.2580    77     1823.4216     Cuts: 153    64080   21.82%
   3499     0     1388.4395    72     1823.4216     Cuts: 162    64132   21.82%
   3499     0     1390.1740    78     1823.4216      Cuts: 76    64178   21.82%
   3499     0     1390.9188    74     1823.4216     Cuts: 103    64241   21.82%
   3499     0     1391.5014    81     1823.4216      Cuts: 71    64289   21.82%
   3499     0     1391.7387    85     1823.4216      Cuts: 63    64315   21.82%
   3499     2     1391.7387    85     1823.4216     1425.6396    64315   21.82%
   3889   254     1446.9931    61     1823.4216     1425.6396    69456   21.82%
   4692   913     1506.2799    79     1823.4216     1446.9732    91643   20.65%
   5289  1441     1627.3081    39     1823.4216     1467.8460   118318   19.50%
   5876  1869     1565.5287    64     1823.4216     1482.9455   139822   18.67%
   6426  2363     1503.7330    75     1823.4216     1492.4182   166885   18.15%
*  7341+ 3127                         1797.9876     1503.7017            16.37%
   8434  3873     1669.9921    40     1797.9876     1514.1666   251896   15.79%
Elapsed time = 2.12 sec. (3544.06 ticks, tree = 2.17 MB, solutions = 8)
  10553  5353     1797.7780    10     1797.9876     1532.6307   337398   14.76%
* 11192  5883      integral     0     1791.0629     1536.5917   365728   14.21%
  12384  6673     1609.9449    73     1791.0629     1546.1729   421212   13.67%
  14256  7843     1680.5499    38     1791.0629     1557.3051   495414   13.05%
  16391  9167     1754.6188    18     1791.0629     1568.1335   582694   12.45%
  18536 10617     1649.5746    71     1791.0629     1577.6804   683579   11.91%
  20820 11994        cutoff           1791.0629     1588.0466   777472   11.33%
* 21113+12257                         1751.2792     1589.7630             9.22%
  22220 10504     1669.8062    47     1751.2792     1596.6670   851234    8.83%
  22918 11005     1695.7313    62     1751.2792     1604.5083   918914    8.38%
  23693 11584     1738.8604    32     1751.2792     1614.3646   996661    7.82%
  24464 12114     1745.2377    33     1751.2792     1621.6599  1060967    7.40%
Elapsed time = 7.23 sec. (13094.25 ticks, tree = 7.80 MB, solutions = 10)
  25206 12624    infeasible           1751.2792     1629.9191  1119989    6.93%
  26037 13073     1703.1044    36     1751.2792     1635.9990  1169300    6.58%
  26772 13709     1657.4571    75     1751.2792     1641.0900  1241292    6.29%
* 26998+13747                         1747.0330     1642.7423             5.97%
  27527 13738     1676.9924    59     1747.0330     1646.3977  1287460    5.76%

Clique cuts applied:  0
Cover cuts applied:  141
Implied bound cuts applied:  7
Flow cuts applied:  70
Mixed integer rounding cuts applied:  2422
Lift and project cuts applied:  25
Gomory fractional cuts applied:  22

Root node processing (before b&c):
  Real time             =    0.05 sec. (78.10 ticks)
Parallel b&c, 8 threads:
  Real time             =    9.95 sec. (17766.21 ticks)
  Sync time (average)   =    0.92 sec.
  Wait time (average)   =    0.00 sec.
                          ------------
Total (root+branch&cut) =   10.00 sec. (17844.30 ticks)
Gap: 5.47%
Upper bound: 1747.03
Lower bound: 1651.45
End of CPLEX run. Time: 10.0033 seconds

===== New CPLEX run =====
Instance: /home/yorig/tuner/mpils-tests/instances/miplib/medium-2/supportcase26.mps
Config: /scratch/yorig/mpils-results-grid-seconds-10-no-mip-start/medium-2/1proc/seed-3/7_supportcase26_seed-3_20260503_020745/iterated_local_search/run_3_worker_0/ils_config_8888646220619849979.prm
========================

Selected objective sense:  MINIMIZE
Selected objective  name:  OBJ
Selected RHS        name:  RHS1
Selected bound      name:  BND1
Version identifier: 22.1.2.0 | 2024-11-26 | 0edbb82fd
CPXPARAM_Threads                                 8
CPXPARAM_Parallel                                1
CPXPARAM_MIP_Cuts_Cliques                        2
CPXPARAM_MIP_Strategy_VariableSelect             3
CPXPARAM_MIP_Strategy_PresolveNode               1
CPXPARAM_MIP_Limits_GomoryCand                   25
CPXPARAM_MIP_Cuts_PathCut                        -1
CPXPARAM_MIP_Cuts_MIRCut                         2
CPXPARAM_Emphasis_MIP                            2
CPXPARAM_TimeLimit                               10
CPXPARAM_MIP_Limits_CutsFactor                   8
Tried aggregator 1 time.
MIP Presolve eliminated 40 rows and 0 columns.
Reduced MIP has 830 rows, 436 columns, and 2452 nonzeros.
Reduced MIP has 396 binaries, 0 generals, 0 SOSs, and 0 indicators.
Presolve time = 0.00 sec. (0.91 ticks)
Found incumbent of value 2537.591322 after 0.00 sec. (3.43 ticks)
Probing time = 0.00 sec. (0.47 ticks)
Tried aggregator 1 time.
Detecting symmetries...
Reduced MIP has 830 rows, 436 columns, and 2452 nonzeros.
Reduced MIP has 396 binaries, 0 generals, 0 SOSs, and 0 indicators.
Presolve time = 0.00 sec. (1.10 ticks)
Probing time = 0.00 sec. (0.47 ticks)
MIP emphasis: optimality.
MIP search method: dynamic search.
Parallel mode: deterministic, using up to 8 threads.
Root relaxation solution time = 0.00 sec. (2.85 ticks)

        Nodes                                         Cuts/
   Node  Left     Objective  IInf  Best Integer    Best Bound    ItCnt     Gap

*     0+    0                         2537.5913     1288.1022            49.24%
*     0+    0                         2201.8794     1288.1022            41.50%
      0     0     1288.1022    47     2201.8794     1288.1022      207   41.50%
      0     0     1288.1308    47     2201.8794   MIRcuts: 35      267   41.50%
      0     0     1326.7507    41     2201.8794   MIRcuts: 58      320   39.74%
      0     0     1353.0747    49     2201.8794      Cuts: 73      372   38.55%
      0     0     1357.4882    53     2201.8794      Cuts: 67      403   38.35%
      0     0     1357.5200    57     2201.8794   MIRcuts: 12      413   38.35%
Detecting symmetries...
      0     0     1357.7417    57     2201.8794    MIRcuts: 5      417   38.34%
      0     0     1357.7417    58     2201.8794   MIRcuts: 63      430   38.34%
*     0+    0                         1921.1277     1357.7417            29.33%
Detecting symmetries...
      0     2     1357.7417    58     1921.1277     1367.3776      430   28.82%
Elapsed time = 0.06 sec. (80.11 ticks, tree = 0.02 MB, solutions = 3)
*     3+    1                         1921.1277     1367.3776            28.82%
*     9+    3                         1916.8815     1368.8113            28.59%
*   354+  256                         1904.1428     1378.5396            27.60%
    400   310     1552.4190    39     1904.1428     1391.0262     4464   26.95%
    853   591     1451.7980    41     1904.1428     1411.6957     8526   25.86%
   1108   891     1574.4409    29     1904.1428     1425.5755    14011   25.13%
*  1121+  890                         1887.1580     1425.5755            24.46%
   1174   917     1479.3929    47     1887.1580     1428.1329    14830   24.32%
   1422  1111     1454.8617    42     1887.1580     1440.2677    20450   23.68%
   1628  1262     1776.9458    24     1887.1580     1446.8618    25158   23.33%
   1817  1385     1527.0092    41     1887.1580     1452.7969    28723   23.02%
   1978  1552     1464.0481    47     1887.1580     1460.4447    33912   22.61%
   2180  1735     1490.1130    59     1887.1580     1463.5798    40217   22.45%
   2770  2216     1704.6349    37     1887.1580     1472.2931    54815   21.98%
Elapsed time = 1.41 sec. (3188.11 ticks, tree = 2.68 MB, solutions = 6)
   3340  2651     1545.2621    47     1887.1580     1478.5747    69681   21.65%

Performing restart 1

Repeating presolve.
Tried aggregator 1 time.
MIP Presolve modified 1188 coefficients.
Reduced MIP has 830 rows, 436 columns, and 2452 nonzeros.
Reduced MIP has 396 binaries, 0 generals, 0 SOSs, and 0 indicators.
Presolve time = 0.00 sec. (1.09 ticks)
Tried aggregator 1 time.
Reduced MIP has 830 rows, 436 columns, and 2452 nonzeros.
Reduced MIP has 396 binaries, 0 generals, 0 SOSs, and 0 indicators.
Presolve time = 0.00 sec. (1.39 ticks)
Represolve time = 0.01 sec. (12.77 ticks)
*  3347+    0                         1887.1580     1479.4334            21.61%
   3347     0     1374.8369    67     1887.1580     Cuts: 307    73056   21.61%
   3347     0     1381.3176    71     1887.1580      Cuts: 92    73119   21.61%
   3347     0     1384.8410    70     1887.1580     Cuts: 135    73194   21.61%
   3347     0     1386.0802    74     1887.1580      Cuts: 95    73247   21.61%
   3347     0     1387.1877    70     1887.1580      Cuts: 91    73289   21.61%
*  3384+    7                         1882.9118     1479.4334            21.43%
*  3625+  190                         1785.2489     1479.4334            17.13%
   3888   360     1601.8386    23     1785.2489     1479.4334    83638   17.13%
   4218   579     1486.1982    72     1785.2489     1479.4334    99340   17.13%
   4488   809     1676.1642    23     1785.2489     1490.9234   113011   16.49%
   4706   964     1643.1904    47     1785.2489     1499.2699   122159   16.02%
   4946  1124     1516.2796    65     1785.2489     1507.9887   134280   15.53%
*  5094+ 1260                         1781.0027     1513.2152            15.04%
   5193  1353     1635.8014    34     1781.0027     1513.2798   149595   15.03%
   5432  1530     1567.1015    78     1781.0027     1518.0417   161655   14.76%
   5646  1694     1528.0644    63     1781.0027     1524.6952   173706   14.39%
   5842  1847     1559.4056    67     1781.0027     1527.6814   185632   14.22%
Elapsed time = 6.05 sec. (12750.10 ticks, tree = 1.05 MB, solutions = 9)
   6076  1979     1563.5118    62     1781.0027     1532.5465   196798   13.95%
   6220  2135     1609.6718    70     1781.0027     1536.7854   210000   13.71%
   6426  2287     1573.4118    59     1781.0027     1538.7038   222677   13.60%
   6597  2404     1629.5412    39     1781.0027     1541.4664   236349   13.45%
   6723  2486     1557.5492   104     1781.0027     1545.7598   244040   13.21%
   6909  2595     1717.1429    51     1781.0027     1549.0797   257295   13.02%
   7037  2695     1763.3383    65     1781.0027     1550.3541   267774   12.95%
   7204  2822     1576.4984    86     1781.0027     1555.1107   280259   12.68%
   7391  2877     1661.8930   121     1781.0027     1557.1059   286709   12.57%

Clique cuts applied:  0
Cover cuts applied:  107
Implied bound cuts applied:  4
Flow cuts applied:  55
Mixed integer rounding cuts applied:  1688
Gomory fractional cuts applied:  25

Root node processing (before b&c):
  Real time             =    0.06 sec. (79.80 ticks)
Parallel b&c, 8 threads:
  Real time             =    9.95 sec. (21436.96 ticks)
  Sync time (average)   =    1.06 sec.
  Wait time (average)   =    0.00 sec.
                          ------------
Total (root+branch&cut) =   10.00 sec. (21516.76 ticks)
Gap: 12.47%
Upper bound: 1781
Lower bound: 1558.93
End of CPLEX run. Time: 10.0025 seconds

===== New CPLEX run =====
Instance: /home/yorig/tuner/mpils-tests/instances/miplib/medium-2/supportcase26.mps
Config: /scratch/yorig/mpils-results-grid-seconds-10-no-mip-start/medium-2/1proc/seed-3/7_supportcase26_seed-3_20260503_020745/iterated_local_search/run_3_worker_0/ils_config_9512435483435878510.prm
========================

Selected objective sense:  MINIMIZE
Selected objective  name:  OBJ
Selected RHS        name:  RHS1
Selected bound      name:  BND1
Version identifier: 22.1.2.0 | 2024-11-26 | 0edbb82fd
CPXPARAM_Threads                                 8
CPXPARAM_Parallel                                1
CPXPARAM_MIP_Cuts_Cliques                        2
CPXPARAM_MIP_Strategy_PresolveNode               -1
CPXPARAM_MIP_Limits_GomoryCand                   25
CPXPARAM_MIP_Cuts_PathCut                        -1
CPXPARAM_MIP_Cuts_MIRCut                         2
CPXPARAM_Emphasis_MIP                            2
CPXPARAM_TimeLimit                               10
CPXPARAM_MIP_Limits_CutsFactor                   8
Tried aggregator 1 time.
MIP Presolve eliminated 40 rows and 0 columns.
Reduced MIP has 830 rows, 436 columns, and 2452 nonzeros.
Reduced MIP has 396 binaries, 0 generals, 0 SOSs, and 0 indicators.
Presolve time = 0.00 sec. (0.91 ticks)
Found incumbent of value 2537.591322 after 0.00 sec. (3.43 ticks)
Probing time = 0.00 sec. (0.47 ticks)
Tried aggregator 1 time.
Detecting symmetries...
Reduced MIP has 830 rows, 436 columns, and 2452 nonzeros.
Reduced MIP has 396 binaries, 0 generals, 0 SOSs, and 0 indicators.
Presolve time = 0.00 sec. (1.10 ticks)
Probing time = 0.00 sec. (0.47 ticks)
MIP emphasis: optimality.
MIP search method: dynamic search.
Parallel mode: deterministic, using up to 8 threads.
Root relaxation solution time = 0.00 sec. (2.85 ticks)

        Nodes                                         Cuts/
   Node  Left     Objective  IInf  Best Integer    Best Bound    ItCnt     Gap

*     0+    0                         2537.5913     1288.1022            49.24%
*     0+    0                         2201.8794     1288.1022            41.50%
      0     0     1288.1022    47     2201.8794     1288.1022      207   41.50%
      0     0     1288.1308    47     2201.8794   MIRcuts: 35      267   41.50%
      0     0     1326.7507    41     2201.8794   MIRcuts: 58      320   39.74%
      0     0     1353.0747    49     2201.8794      Cuts: 73      372   38.55%
      0     0     1357.4882    53     2201.8794      Cuts: 67      403   38.35%
      0     0     1357.5200    57     2201.8794   MIRcuts: 12      413   38.35%
Detecting symmetries...
      0     0     1357.7417    57     2201.8794    MIRcuts: 5      417   38.34%
      0     0     1357.7417    58     2201.8794   MIRcuts: 63      430   38.34%
*     0+    0                         1925.3739     1357.7417            29.48%
Detecting symmetries...
      0     2     1357.7417    58     1925.3739     1367.3776      430   28.98%
Elapsed time = 0.06 sec. (78.41 ticks, tree = 0.02 MB, solutions = 3)
*    95    73      integral     0     1874.4194     1367.3776     1203   27.05%
*   325   237      integral     0     1823.4216     1367.3776     2641   25.01%
*   803   611      integral     0     1810.7262     1376.8769     7023   23.96%
*   989   675      integral     0     1797.9876     1376.8769     7761   23.42%
   1779  1218     1449.3729    34     1797.9876     1387.6334    16090   22.82%
   3293  2532     1433.8044    43     1797.9876     1411.9949    45506   21.47%

Performing restart 1

Repeating presolve.
Tried aggregator 1 time.
MIP Presolve modified 1188 coefficients.
Reduced MIP has 830 rows, 436 columns, and 2452 nonzeros.
Reduced MIP has 396 binaries, 0 generals, 0 SOSs, and 0 indicators.
Presolve time = 0.00 sec. (1.09 ticks)
Tried aggregator 1 time.
Reduced MIP has 830 rows, 436 columns, and 2452 nonzeros.
Reduced MIP has 396 binaries, 0 generals, 0 SOSs, and 0 indicators.
Presolve time = 0.00 sec. (1.39 ticks)
Represolve time = 0.01 sec. (12.56 ticks)
*  3465+    0                         1797.9876     1415.9940            21.25%
   3465     0     1379.1269    66     1797.9876     Cuts: 307    56084   21.25%
   3465     0     1383.1827    69     1797.9876      Cuts: 72    56134   21.25%
   3465     0     1386.1818    71     1797.9876     Cuts: 122    56197   21.25%
   3465     0     1387.4288    76     1797.9876     Cuts: 125    56241   21.25%
   3465     0     1388.4351    75     1797.9876      Cuts: 56    56288   21.25%
   3465     0     1388.8328    77     1797.9876     Cuts: 105    56345   21.25%
   3465     2     1388.8328    77     1797.9876     1415.9940    56345   21.25%
   4008   379     1451.1673    58     1797.9876     1415.9940    62753   21.25%
   4790  1000        cutoff           1797.9876     1438.3205    82600   20.00%
   5533  1620     1605.5321    43     1797.9876     1462.2341   108466   18.67%
   6215  2165     1697.1224    35     1797.9876     1476.0005   133811   17.91%
   7021  2698     1609.4751    48     1797.9876     1487.2485   155917   17.28%
  10011  5061     1545.6075    60     1797.9876     1514.9754   260004   15.74%
Elapsed time = 1.93 sec. (3322.02 ticks, tree = 3.28 MB, solutions = 9)
* 11780  6421      integral     0     1785.2489     1523.3788   318420   14.67%
* 12475+ 6631                         1781.0027     1528.7082            14.17%
* 12621+ 6700                         1781.0027     1528.8451            14.16%
  12958  6987     1647.5200    36     1781.0027     1530.6461   353279   14.06%
  16157  9460     1709.6152    47     1781.0027     1542.9947   455750   13.36%
* 18896+11323                         1781.0027     1551.5717            12.88%
  19331 11730     1615.1811    50     1781.0027     1552.9732   549438   12.80%
* 19362+11616                         1776.7565     1553.1540            12.58%
  22036 13346        cutoff           1776.7565     1560.8972   627566   12.15%
  24803 15384     1739.2476    33     1776.7565     1567.3476   719124   11.79%
* 26935+16688                         1772.5103     1572.6321            11.28%
* 27027+16755                         1772.5103     1572.7733            11.27%
  27463 17025     1687.9880    28     1772.5103     1573.6034   816590   11.22%
  30200 18740     1672.0717    25     1772.5103     1579.0870   903953   10.91%
  32888 20369     1615.4913    51     1772.5103     1584.3096   984549   10.62%
  35497 21922     1622.3277    51     1772.5103     1589.0400  1069315   10.35%
* 36622+22848                         1768.2641     1591.7801             9.98%
  37866 22926     1643.4837    54     1768.2641     1593.5687  1147962    9.88%
Elapsed time = 7.11 sec. (12864.88 ticks, tree = 16.17 MB, solutions = 14)
  40544 24659     1625.5610    52     1768.2641     1597.5177  1238461    9.66%
  43135 26289     1709.4553    50     1768.2641     1601.9285  1325028    9.41%
  45709 27417        cutoff           1768.2641     1605.9582  1392972    9.18%
  47586 29043     1662.8539    61     1768.2641     1609.5487  1486540    8.98%
  48503 29828     1654.7125    44     1768.2641     1612.9938  1568953    8.78%

Clique cuts applied:  0
Cover cuts applied:  138
Implied bound cuts applied:  8
Flow cuts applied:  63
Mixed integer rounding cuts applied:  2246
Lift and project cuts applied:  3
Gomory fractional cuts applied:  32

Root node processing (before b&c):
  Real time             =    0.06 sec. (78.13 ticks)
Parallel b&c, 8 threads:
  Real time             =    9.95 sec. (18155.79 ticks)
  Sync time (average)   =    0.92 sec.
  Wait time (average)   =    0.00 sec.
                          ------------
Total (root+branch&cut) =   10.00 sec. (18233.92 ticks)
Gap: 8.56%
Upper bound: 1768.26
Lower bound: 1616.84
End of CPLEX run. Time: 10.0038 seconds

===== New CPLEX run =====
Instance: /home/yorig/tuner/mpils-tests/instances/miplib/medium-2/supportcase26.mps
Config: /scratch/yorig/mpils-results-grid-seconds-10-no-mip-start/medium-2/1proc/seed-3/7_supportcase26_seed-3_20260503_020745/iterated_local_search/run_3_worker_0/ils_config_18219376163608082451.prm
========================

Selected objective sense:  MINIMIZE
Selected objective  name:  OBJ
Selected RHS        name:  RHS1
Selected bound      name:  BND1
Version identifier: 22.1.2.0 | 2024-11-26 | 0edbb82fd
CPXPARAM_Threads                                 8
CPXPARAM_Parallel                                1
CPXPARAM_MIP_Cuts_Cliques                        2
CPXPARAM_MIP_Strategy_PresolveNode               1
CPXPARAM_MIP_Limits_GomoryCand                   25
CPXPARAM_MIP_Cuts_PathCut                        -1
CPXPARAM_MIP_Cuts_MIRCut                         2
CPXPARAM_Emphasis_MIP                            2
CPXPARAM_TimeLimit                               10
CPXPARAM_MIP_Limits_CutsFactor                   8
CPXPARAM_MIP_Limits_ProbeTime                    120
Tried aggregator 1 time.
MIP Presolve eliminated 40 rows and 0 columns.
Reduced MIP has 830 rows, 436 columns, and 2452 nonzeros.
Reduced MIP has 396 binaries, 0 generals, 0 SOSs, and 0 indicators.
Presolve time = 0.00 sec. (0.91 ticks)
Found incumbent of value 2537.591322 after 0.00 sec. (3.43 ticks)
Probing time = 0.00 sec. (0.47 ticks)
Tried aggregator 1 time.
Detecting symmetries...
Reduced MIP has 830 rows, 436 columns, and 2452 nonzeros.
Reduced MIP has 396 binaries, 0 generals, 0 SOSs, and 0 indicators.
Presolve time = 0.00 sec. (1.10 ticks)
Probing time = 0.00 sec. (0.47 ticks)
MIP emphasis: optimality.
MIP search method: dynamic search.
Parallel mode: deterministic, using up to 8 threads.
Root relaxation solution time = 0.00 sec. (2.85 ticks)

        Nodes                                         Cuts/
   Node  Left     Objective  IInf  Best Integer    Best Bound    ItCnt     Gap

*     0+    0                         2537.5913     1288.1022            49.24%
*     0+    0                         2201.8794     1288.1022            41.50%
      0     0     1288.1022    47     2201.8794     1288.1022      207   41.50%
      0     0     1288.1308    47     2201.8794   MIRcuts: 35      267   41.50%
      0     0     1326.7507    41     2201.8794   MIRcuts: 58      320   39.74%
      0     0     1353.0747    49     2201.8794      Cuts: 73      372   38.55%
      0     0     1357.4882    53     2201.8794      Cuts: 67      403   38.35%
      0     0     1357.5200    57     2201.8794   MIRcuts: 12      413   38.35%
Detecting symmetries...
      0     0     1357.7417    57     2201.8794    MIRcuts: 5      417   38.34%
      0     0     1357.7417    58     2201.8794   MIRcuts: 63      430   38.34%
*     0+    0                         1925.3739     1357.7417            29.48%
Detecting symmetries...
      0     2     1357.7417    58     1925.3739     1367.3776      430   28.98%
Elapsed time = 0.06 sec. (78.41 ticks, tree = 0.02 MB, solutions = 3)
*   104    76      integral     0     1874.4194     1367.3776     1225   27.05%
*   309   243      integral     0     1823.4216     1367.3776     2530   25.01%
    932   731     1463.1271    39     1823.4216     1370.1168     8101   24.86%
   1851  1433     1523.0916    48     1823.4216     1391.7566    19312   23.67%
   3030  2566     1651.3739    15     1823.4216     1418.4617    49415   22.21%

Performing restart 1

Repeating presolve.
Tried aggregator 1 time.
MIP Presolve modified 1188 coefficients.
Reduced MIP has 830 rows, 436 columns, and 2452 nonzeros.
Reduced MIP has 396 binaries, 0 generals, 0 SOSs, and 0 indicators.
Presolve time = 0.00 sec. (1.09 ticks)
Tried aggregator 1 time.
Reduced MIP has 830 rows, 436 columns, and 2452 nonzeros.
Reduced MIP has 396 binaries, 0 generals, 0 SOSs, and 0 indicators.
Presolve time = 0.00 sec. (1.39 ticks)
Represolve time = 0.01 sec. (12.46 ticks)
*  3499+    0                         1823.4216     1425.6396            21.82%
   3499     0     1376.4043    74     1823.4216     Cuts: 307    63940   21.82%
   3499     0     1382.2974    72     1823.4216      Cuts: 80    64001   21.82%
   3499     0     1387.2580    77     1823.4216     Cuts: 153    64080   21.82%
   3499     0     1388.4395    72     1823.4216     Cuts: 162    64132   21.82%
   3499     0     1390.1740    78     1823.4216      Cuts: 76    64178   21.82%
   3499     0     1390.9188    74     1823.4216     Cuts: 103    64241   21.82%
   3499     0     1391.5014    81     1823.4216      Cuts: 71    64289   21.82%
   3499     0     1391.7387    85     1823.4216      Cuts: 63    64315   21.82%
   3499     2     1391.7387    85     1823.4216     1425.6396    64315   21.82%
   3889   254     1446.9931    61     1823.4216     1425.6396    69456   21.82%
   4692   913     1506.2799    79     1823.4216     1446.9732    91643   20.65%
   5289  1441     1627.3081    39     1823.4216     1467.8460   118318   19.50%
   5876  1869     1565.5287    64     1823.4216     1482.9455   139822   18.67%
   6426  2363     1503.7330    75     1823.4216     1492.4182   166885   18.15%
*  7341+ 3127                         1797.9876     1503.7017            16.37%
   8434  3873     1669.9921    40     1797.9876     1514.1666   251896   15.79%
Elapsed time = 2.11 sec. (3544.06 ticks, tree = 2.17 MB, solutions = 8)
  10553  5353     1797.7780    10     1797.9876     1532.6307   337398   14.76%
* 11192  5883      integral     0     1791.0629     1536.5917   365728   14.21%
  12384  6673     1609.9449    73     1791.0629     1546.1729   421212   13.67%
  14256  7843     1680.5499    38     1791.0629     1557.3051   495414   13.05%
  16391  9167     1754.6188    18     1791.0629     1568.1335   582694   12.45%
  18536 10617     1649.5746    71     1791.0629     1577.6804   683579   11.91%
  20820 11994        cutoff           1791.0629     1588.0466   777472   11.33%
* 21113+12257                         1751.2792     1589.7630             9.22%
  22220 10504     1669.8062    47     1751.2792     1596.6670   851234    8.83%
  22918 11005     1695.7313    62     1751.2792     1604.5083   918914    8.38%
  23693 11584     1738.8604    32     1751.2792     1614.3646   996661    7.82%
  24464 12114     1745.2377    33     1751.2792     1621.6599  1060967    7.40%
Elapsed time = 7.23 sec. (13094.25 ticks, tree = 7.80 MB, solutions = 10)
  25206 12624    infeasible           1751.2792     1629.9191  1119989    6.93%
  26037 13073     1703.1044    36     1751.2792     1635.9990  1169300    6.58%
  26772 13709     1657.4571    75     1751.2792     1641.0900  1241292    6.29%
* 26998+13747                         1747.0330     1642.7423             5.97%
  27527 13738     1676.9924    59     1747.0330     1646.3977  1287460    5.76%

Clique cuts applied:  0
Cover cuts applied:  141
Implied bound cuts applied:  7
Flow cuts applied:  70
Mixed integer rounding cuts applied:  2424
Lift and project cuts applied:  25
Gomory fractional cuts applied:  22

Root node processing (before b&c):
  Real time             =    0.06 sec. (78.10 ticks)
Parallel b&c, 8 threads:
  Real time             =    9.95 sec. (17780.34 ticks)
  Sync time (average)   =    0.92 sec.
  Wait time (average)   =    0.00 sec.
                          ------------
Total (root+branch&cut) =   10.00 sec. (17858.44 ticks)
Gap: 5.47%
Upper bound: 1747.03
Lower bound: 1651.45
End of CPLEX run. Time: 10.0034 seconds
